NAME 
ROWS
 N  OBJ
 L  R0      
 L  R1      
 E  R2      
COLUMNS
    MARKER    'MARKER'                 'INTORG'
    I0(3)     OBJ       -737
    I0(3)     R0        -357
    I0(3)     R1        -123
    I0(3)     R2        929
    I1(3)     OBJ       -659
    I1(3)     R0        -988
    I1(3)     R1        -401
    I1(3)     R2        304
    I2(3)     OBJ       -218
    I2(3)     R0        -814
    I2(3)     R1        -161
    I2(3)     R2        644
    I3(3)     OBJ       -790
    I3(3)     R0        -575
    I3(3)     R1        -936
    I3(3)     R2        89
    I4(3)     OBJ       -542
    I4(3)     R0        -777
    I4(3)     R1        -975
    I4(3)     R2        240
    I5(3)     OBJ       -850
    I5(3)     R0        -355
    I5(3)     R1        -938
    I5(3)     R2        618
    I6(3)     OBJ       -968
    I6(3)     R0        -425
    I6(3)     R1        -291
    I6(3)     R2        26
    I7(3)     OBJ       -527
    I7(3)     R0        -744
    I7(3)     R1        -399
    I7(3)     R2        530
    I8(3)     OBJ       -466
    I8(3)     R0        -882
    I8(3)     R1        -681
    I8(3)     R2        17
    I9(3)     OBJ       -91
    I9(3)     R0        -890
    I9(3)     R1        -172
    I9(3)     R2        707
    I10(3)    OBJ       -823
    I10(3)    R0        -835
    I10(3)    R1        -289
    I10(3)    R2        702
    I11(3)    OBJ       -38
    I11(3)    R0        -704
    I11(3)    R1        -516
    I11(3)    R2        306
    I12(3)    OBJ       -83
    I12(3)    R0        -928
    I12(3)    R1        -876
    I12(3)    R2        222
    I13(3)    OBJ       -125
    I13(3)    R0        -918
    I13(3)    R1        -217
    I13(3)    R2        578
    I14(3)    OBJ       -706
    I14(3)    R0        -829
    I14(3)    R1        -433
    I14(3)    R2        522
    I15(3)    OBJ       -826
    I15(3)    R0        -633
    I15(3)    R1        -704
    I15(3)    R2        655
    I16(3)    OBJ       -304
    I16(3)    R0        -744
    I16(3)    R1        -849
    I16(3)    R2        282
    I17(3)    OBJ       -739
    I17(3)    R0        -132
    I17(3)    R1        -176
    I17(3)    R2        371
    I18(3)    OBJ       -845
    I18(3)    R0        -371
    I18(3)    R1        -836
    I18(3)    R2        831
    I19(3)    OBJ       -519
    I19(3)    R0        -588
    I19(3)    R1        -220
    I19(3)    R2        118
    I20(3)    OBJ       -959
    I20(3)    R0        -651
    I20(3)    R1        -763
    I20(3)    R2        590
    I21(3)    OBJ       -830
    I21(3)    R0        -329
    I21(3)    R1        -487
    I21(3)    R2        594
    I22(3)    OBJ       -699
    I22(3)    R0        -417
    I22(3)    R1        -549
    I22(3)    R2        604
    I23(3)    OBJ       -337
    I23(3)    R0        -349
    I23(3)    R1        -180
    I23(3)    R2        138
    I24(3)    OBJ       -604
    I24(3)    R0        -666
    I24(3)    R1        -835
    I24(3)    R2        773
    I25(3)    OBJ       -574
    I25(3)    R0        -20
    I25(3)    R1        -214
    I25(3)    R2        438
    I26(3)    OBJ       -303
    I26(3)    R0        -922
    I26(3)    R1        -199
    I26(3)    R2        352
    I27(3)    OBJ       -25
    I27(3)    R0        -968
    I27(3)    R1        -757
    I27(3)    R2        972
    I28(3)    OBJ       -251
    I28(3)    R0        -44
    I28(3)    R1        -182
    I28(3)    R2        194
    I29(3)    OBJ       -155
    I29(3)    R0        -173
    I29(3)    R1        -243
    I29(3)    R2        533
    I30(1)    R2        1
    MARKER    'MARKER'                 'INTEND'
RHS
    RHS1      R0        -10495
    RHS1      R1        -9467
    RHS1      R2        6939
BOUNDS
 UP BND1      I0(3)     1
 UP BND1      I1(3)     1
 UP BND1      I2(3)     1
 UP BND1      I3(3)     1
 UP BND1      I4(3)     1
 UP BND1      I5(3)     1
 UP BND1      I6(3)     1
 UP BND1      I7(3)     1
 UP BND1      I8(3)     1
 UP BND1      I9(3)     1
 UP BND1      I10(3)    1
 UP BND1      I11(3)    1
 UP BND1      I12(3)    1
 UP BND1      I13(3)    1
 UP BND1      I14(3)    1
 UP BND1      I15(3)    1
 UP BND1      I16(3)    1
 UP BND1      I17(3)    1
 UP BND1      I18(3)    1
 UP BND1      I19(3)    1
 UP BND1      I20(3)    1
 UP BND1      I21(3)    1
 UP BND1      I22(3)    1
 UP BND1      I23(3)    1
 UP BND1      I24(3)    1
 UP BND1      I25(3)    1
 UP BND1      I26(3)    1
 UP BND1      I27(3)    1
 UP BND1      I28(3)    1
 UP BND1      I29(3)    1
 LI BND1      I30(1)    0
ENDATA
